0 3210
1 2762
2 2762
3 2500
4 2500
5 2463
6 2412
7 2266
8 2222
9 2168
10 2014
11 1973
12 1871
13 1842
14 1842
15 1842
16 1842
17 1791
18 1758
19 1642
20 1642
21 1642
22 1642
23 1642
24 1626
25 1626
26 1626
27 1626
28 1626
29 1604
30 1604
31 1571
32 1571
33 1571
34 1571
35 1571
36 1567
37 1567
38 1567
39 1562
40 1562
41 1557
42 1557
43 1557
44 1557
45 1557
46 1551
47 1551
48 1526
49 1526
50 1526
51 1526
52 1515
53 1515
54 1515
55 1500
56 1500
57 1500
58 1493
59 1472
60 1472
61 1472
62 1472
63 1472
64 1472
65 1472
66 1456
67 1456
68 1456
69 1456
70 1456
71 1446
72 1443
73 1443
74 1443
75 1431
76 1431
77 1402
78 1402
79 1402
80 1402
81 1402
82 1402
83 1402
84 1402
85 1402
86 1402
87 1402
88 1402
89 1402
90 1389
91 1389
92 1352
93 1352
94 1352
95 1352
96 1352
97 1352
98 1352
99 1352
100 1348
101 1348
102 1348
103 1348
104 1348
105 1348
106 1324
107 1324
108 1324
109 1324
110 1324
111 1324
112 1324
113 1324
114 1316
115 1316
116 1316
117 1316
118 1316
119 1316
120 1316
121 1316
122 1316
123 1316
124 1316
125 1306
126 1306
127 1306
128 1306
129 1306
130 1306
131 1306
132 1306
133 1306
134 1306
135 1306
136 1306
137 1306
138 1304
139 1304
140 1304
141 1304
142 1304
143 1304
144 1289
145 1289
146 1287
147 1249
148 1249
149 1249
150 1249
151 1249
152 1249
153 1249
154 1249
155 1249
156 1249
157 1249
158 1249
159 1249
160 1249
161 1249
162 1249
163 1249
164 1249
165 1249
166 1249
167 1243
168 1243
169 1243
170 1243
171 1243
172 1243
173 1243
174 1243
175 1243
176 1243
177 1243
178 1243
179 1243
180 1243
181 1243
182 1243
183 1243
184 1237
185 1237
186 1237
187 1237
188 1237
189 1237
190 1227
191 1222
192 1222
193 1205
194 1205
195 1205
196 1205
197 1205
198 1205
199 1205
200 1205
201 1205
202 1205
203 1205
204 1205
205 1205
206 1205
207 1205
208 1205
209 1205
210 1205
211 1205
212 1205
213 1205
214 1205
215 1205
216 1205
217 1205
218 1205
219 1205
220 1205
221 1205
222 1205
223 1195
224 1195
225 1195
226 1195
227 1195
228 1195
229 1195
230 1195
231 1195
232 1195
233 1195
234 1168
235 1168
236 1168
237 1168
238 1168
239 1168
240 1168
241 1168
242 1168
243 1168
244 1168
245 1168
246 1168
247 1168
248 1168
249 1168
250 1168
251 1168
252 1168
253 1168
254 1168
255 1156
256 1156
257 1156
258 1152
259 1152
260 1152
261 1152
262 1152
263 1152
264 1152
265 1152
266 1142
267 1138
268 1138
269 1138
270 1138
271 1138
272 1138
273 1138
274 1138
275 1131
276 1131
277 1131
278 1128
279 1128
280 1126
281 1126
282 1119
283 1119
284 1119
285 1117
286 1117
287 1117
288 1113
289 1113
290 1113
291 1113
292 1112
293 1107
294 1107
295 1093
296 1093
297 1093
298 1093
299 1093
300 1093
301 1093
302 1092
303 1087
304 1087
305 1087
306 1087
307 1086
308 1086
309 1086
310 1086
311 1086
312 1082
313 1082
314 1082
315 1081
316 1081
317 1081
318 1081
319 1081
320 1081
321 1081
322 1079
323 1079
324 1079
325 1079
326 1079
327 1079
328 1079
329 1079
330 1079
331 1079
332 1079
333 1079
334 1079
335 1079
336 1079
337 1079
338 1079
339 1075
340 1075
341 1075
342 1075
343 1075
344 1075
345 1075
346 1075
347 1074
348 1074
349 1074
350 1074
351 1074
352 1074
353 1074
354 1074
355 1074
356 1074
357 1074
358 1074
359 1070
360 1070
361 1070
362 1070
363 1070
364 1070
365 1070
366 1070
367 1070
368 1070
369 1070
370 1070
371 1070
372 1070
373 1070
374 1070
375 1070
376 1070
377 1070
378 1070
379 1070
380 1070
381 1070
382 1070
383 1070
384 1070
385 1070
386 1070
387 1070
388 1070
389 1070
390 1070
391 1070
392 1070
393 1070
394 1070
395 1070
396 1070
397 1070
398 1069
399 1069
400 1069
401 1069
402 1069
403 1069
404 1069
405 1069
406 1069
407 1069
408 1069
409 1069
410 1069
411 1069
412 1069
413 1069
414 1069
415 1069
416 1069
417 1069
418 1069
419 1069
420 1069
421 1069
422 1069
423 1069
424 1069
425 1069
426 1069
427 1069
428 1069
429 1069
430 1069
431 1069
432 1069
433 1069
434 1069
435 1069
436 1069
437 1069
438 1069
439 1069
440 1069
441 1069
442 1069
443 1069
444 1069
445 1069
446 1069
447 1069
448 1069
449 1069
450 1069
451 1069
452 1069
453 1069
454 1069
455 1069
456 1069
457 1069
458 1069
459 1069
460 1069
461 1069
462 1069
463 1069
464 1069
465 1069
466 1069
467 1069
468 1069
469 1069
470 1069
471 1069
472 1069
473 1069
474 1069
475 1069
476 1069
477 1069
478 1069
479 1069
480 1069
481 1069
482 1069
483 1069
484 1069
485 1069
486 1069
487 1069
488 1069
489 1069
490 1069
491 1069
492 1069
493 1069
494 1069
495 1069
496 1069
497 1069
498 1069
499 1069
500 1069
501 1069
502 1069
503 1069
504 1069
505 1069
506 1069
507 1069
508 1069
509 1069
510 1069
511 1069
512 1069
513 1069
514 1068
515 1068
516 1068
517 1068
518 1068
519 1068
520 1068
521 1068
522 1068
523 1068
524 1068
525 1068
526 1068
527 1068
528 1068
529 1068
530 1068
531 1068
532 1068
533 1068
534 1068
535 1068
536 1068
537 1068
538 1068
539 1068
540 1068
541 1068
542 1068
543 1068
544 1068
545 1068
546 1068
547 1068
548 1068
549 1068
550 1068
551 1068
552 1068
553 1068
554 1068
555 1068
556 1068
557 1068
558 1068
559 1068
560 1068
561 1068
562 1068
563 1068
564 1068
565 1068
566 1068
567 1068
568 1068
569 1068
570 1068
571 1068
572 1068
573 1068
574 1068
575 1068
576 1068
577 1068
578 1068
579 1068
580 1067
581 1067
582 1067
583 1067
584 1067
585 1067
586 1067
587 1067
588 1067
589 1067
590 1067
591 1067
592 1067
593 1067
594 1067
595 1067
596 1067
597 1067
598 1067
599 1067
600 1067
601 1067
602 1067
603 1067
604 1067
605 1067
606 1067
607 1067
608 1067
609 1067
610 1067
611 1067
612 1067
613 1067
614 1067
615 1067
616 1067
617 1067
618 1067
619 1067
620 1067
621 1067
622 1067
623 1067
624 1067
625 1067
626 1067
627 1067
628 1067
629 1067
630 1067
631 1067
632 1067
633 1067
634 1067
635 1067
636 1067
637 1067
638 1067
639 1067
640 1067
641 1067
642 1067
643 1067
644 1067
645 1067
646 1067
647 1067
648 1067
649 1067
650 1067
651 1067
652 1067
653 1067
654 1067
655 1067
656 1067
657 1067
658 1067
659 1067
660 1067
661 1067
662 1067
663 1067
664 1067
665 1067
666 1067
667 1067
668 1067
669 1067
670 1067
671 1067
672 1067
673 1067
674 1067
675 1067
676 1067
677 1067
678 1067
679 1067
680 1067
681 1067
682 1067
683 1067
684 1067
685 1067
686 1067
687 1067
688 1067
689 1067
690 1067
691 1067
692 1067
693 1067
694 1067
695 1067
696 1067
697 1067
698 1067
699 1067
700 1067
701 1067
702 1067
703 1067
704 1067
705 1067
706 1067
707 1067
708 1067
709 1067
710 1067
711 1067
712 1067
713 1067
714 1067
715 1067
716 1067
717 1067
718 1067
719 1067
720 1067
721 1067
722 1067
723 1067
724 1067
725 1067
726 1067
727 1067
728 1067
729 1067
730 1067
731 1067
732 1067
733 1067
734 1067
735 1067
736 1067
737 1067
738 1067
739 1067
740 1067
741 1067
742 1067
743 1067
744 1067
745 1067
746 1067
747 1067
748 1067
749 1067
750 1067
751 1067
752 1067
753 1067
754 1067
755 1067
756 1067
757 1067
758 1067
759 1067
760 1067
761 1067
762 1067
763 1067
764 1067
765 1067
766 1067
767 1067
768 1067
769 1067
770 1067
771 1067
772 1067
773 1067
774 1067
775 1067
776 1067
777 1067
778 1067
779 1067
780 1067
781 1067
782 1067
783 1067
784 1067
785 1067
786 1067
787 1067
788 1067
789 1067
790 1067
791 1067
792 1067
793 1067
794 1067
795 1067
796 1067
797 1067
798 1067
799 1067
800 1067
801 1067
802 1067
803 1067
804 1067
805 1067
806 1067
807 1067
808 1067
809 1067
810 1067
811 1067
812 1067
813 1067
814 1067
815 1067
816 1067
817 1067
818 1067
819 1067
820 1067
821 1067
822 1067
823 1067
824 1067
825 1067
826 1067
827 1067
828 1067
829 1067
830 1067
831 1067
832 1067
833 1067
834 1067
835 1067
836 1067
837 1067
838 1067
839 1067
840 1067
841 1067
842 1067
843 1067
844 1067
845 1067
846 1067
847 1067
848 1067
849 1067
850 1067
851 1067
852 1067
853 1067
854 1067
855 1067
856 1067
857 1067
858 1067
859 1067
860 1067
861 1067
862 1067
863 1067
864 1067
865 1067
866 1067
867 1067
868 1067
869 1067
870 1067
871 1067
872 1067
873 1067
874 1067
875 1067
876 1067
877 1067
878 1067
879 1067
880 1067
881 1067
882 1067
883 1067
884 1067
885 1067
886 1067
887 1067
888 1067
889 1067
890 1067
891 1067
892 1067
893 1067
894 1067
895 1067
896 1067
897 1067
898 1067
899 1067
900 1067
901 1067
902 1067
903 1067
904 1067
905 1067
906 1067
907 1067
908 1067
909 1067
910 1067
911 1067
912 1067
913 1067
914 1067
915 1067
916 1067
917 1067
918 1067
919 1067
920 1067
921 1067
922 1067
923 1067
924 1067
925 1067
926 1067
927 1067
928 1067
929 1067
930 1067
931 1067
932 1067
933 1067
934 1067
935 1067
936 1067
937 1067
938 1067
939 1067
940 1067
941 1067
942 1067
943 1067
944 1067
945 1067
946 1067
947 1067
948 1067
949 1067
950 1067
951 1067
952 1067
953 1067
954 1067
955 1067
956 1067
957 1067
958 1067
959 1067
960 1067
961 1067
962 1067
963 1067
964 1067
965 1067
966 1067
967 1067
968 1067
969 1067
970 1067
971 1067
972 1067
973 1067
974 1067
975 1067
976 1067
977 1067
978 1067
979 1067
980 1067
981 1067
982 1067
983 1067
984 1067
985 1067
986 1067
987 1067
988 1067
989 1067
990 1067
991 1067
992 1067
993 1067
994 1067
995 1067
996 1067
997 1067
998 1067
999 1067
Best: [[17,36,26,8],
       [15,7,37,30,25],
       [9,2,10,31,33,28],
       [18,35,32,27,14],
       [16,11,12,13,23,24,20,5,19],
       [21,4,6,34,3,29,22]], fitness: 1067
